;; Original file: term_180.smt2
(set-logic HORN)
(declare-fun starexecinv1 (Real Real Real Real) Bool)

(assert (forall ((|XXX0prime| Real)
         (|XXX2prime| Real)
         (|XXX1prime| Real)
         (|gh0prime| Real))
  (let ((a!1 (> |gh0prime| (* (+ 0 (- 1)) |XXX0prime|)))
        (a!2 (> |gh0prime| (* (+ 0 (- 1)) |XXX1prime|)))
        (a!3 (> |gh0prime| (* (+ 0 (- 1)) |XXX2prime|)))
        (a!4 (+ (* (+ 0 (- 1)) |XXX0prime|) (* (+ 0 1) |XXX2prime|)))
        (a!5 (+ (* (+ 0 (- 1)) |XXX1prime|) (* (+ 0 1) |XXX2prime|)))
        (a!6 (+ (* (+ 0 (- 1)) |XXX0prime|) (* (+ 0 1) |XXX1prime|)))
        (a!7 (+ (* (+ 0 1) |XXX0prime|) (* (+ 0 (- 1)) |XXX1prime|))))
  (let ((a!8 (and true
                  (<= |XXX0prime| |XXX2prime|)
                  (<= |XXX1prime| |XXX2prime|)
                  (> |gh0prime| |XXX0prime|)
                  (> |gh0prime| |XXX1prime|)
                  (> |gh0prime| |XXX2prime|)
                  a!1
                  a!2
                  a!3
                  (> |gh0prime| (+ 0 1))
                  (> |gh0prime| a!4)
                  (> |gh0prime| a!5)
                  (> |gh0prime| a!6)
                  (> |gh0prime| a!7)
                  (> |gh0prime| (+ a!4 (+ 0 1)))
                  (> |gh0prime| (+ a!5 (+ 0 1))))))
    (=> a!8 (starexecinv1 |XXX0prime| |XXX1prime| |XXX2prime| |gh0prime|))))))
(assert (forall ((|XXX0| Real)
         (|XXX1| Real)
         (|XXX2| Real)
         (gh0 Real)
         (|XXX0prime| Real)
         (|XXX1prime| Real)
         (|XXX2prime| Real)
         (|gh0prime| Real))
  (let ((a!1 (ite (> (+ |XXX0| (+ 0 1)) |XXX2|)
                  |XXX2|
                  (+ |XXX0| (+ 0 1))))
        (a!2 (ite (> (+ |XXX1| (+ 0 1)) |XXX2|)
                  (- (+ |XXX1| (+ 0 1)) (+ 0 1))
                  (+ |XXX1| (+ 0 1))))
        (a!3 (+ (* (+ 0 (- 1)) |XXX0|) (* (+ 0 1) |XXX2|)))
        (a!4 (+ (* (+ 0 (- 1)) |XXX1|) (* (+ 0 1) |XXX2|))))
  (let ((a!5 (and (starexecinv1 |XXX0| |XXX1| |XXX2| gh0)
                  (not (= |XXX0| |XXX1|))
                  (= |XXX0prime| a!1)
                  (= |XXX1prime| a!2)
                  (= |XXX2prime| |XXX2|)
                  (= |gh0prime| (- gh0 (+ 0 1)))
                  (>= a!3 (+ 0 0))
                  (>= a!4 (+ 0 0)))))
    (=> a!5 (starexecinv1 |XXX0prime| |XXX1prime| |XXX2prime| |gh0prime|))))))
(assert (forall ((|XXX0| Real)
         (|XXX1| Real)
         (|XXX2| Real)
         (gh0 Real)
         )
  (let ((a!1 (+ (* (+ 0 (- 1)) |XXX0|) (* (+ 0 1) |XXX2|)))
        (a!2 (+ (* (+ 0 (- 1)) |XXX1|) (* (+ 0 1) |XXX2|))))
    (=> (and (starexecinv1 |XXX0| |XXX1| |XXX2| gh0)
             (not (= |XXX0| |XXX1|))
             (< gh0 (+ 0 0))
             (>= a!1 (+ 0 0))
             (>= a!2 (+ 0 0)))
        false))))
(check-sat)
